c Reduced graph for jean generated by Cyril Grelier
p edge 80 254
e 1 2
e 1 3
e 1 4
e 1 5
e 1 6
e 1 7
e 1 9
e 1 13
e 1 15
e 1 19
e 1 20
e 1 21
e 1 22
e 1 23
e 1 26
e 1 30
e 1 36
e 1 37
e 1 38
e 1 39
e 1 40
e 1 41
e 1 43
e 1 44
e 1 45
e 1 47
e 1 48
e 1 49
e 1 54
e 1 58
e 1 60
e 1 70
e 1 72
e 1 73
e 1 75
e 1 76
e 2 3
e 2 4
e 2 5
e 2 7
e 2 8
e 2 9
e 2 10
e 2 11
e 2 12
e 2 16
e 2 17
e 2 18
e 2 21
e 2 22
e 2 23
e 2 25
e 2 27
e 2 32
e 2 51
e 2 52
e 2 55
e 3 5
e 3 7
e 3 8
e 3 9
e 3 10
e 3 11
e 3 12
e 3 14
e 3 15
e 3 16
e 3 17
e 3 24
e 3 30
e 3 36
e 3 42
e 3 50
e 3 53
e 4 5
e 4 6
e 4 7
e 4 13
e 4 15
e 4 20
e 4 21
e 4 22
e 4 23
e 4 26
e 4 43
e 4 44
e 4 47
e 4 48
e 4 54
e 5 6
e 5 13
e 5 14
e 5 15
e 5 20
e 5 21
e 5 22
e 5 23
e 5 27
e 5 46
e 5 50
e 5 68
e 6 13
e 6 24
e 6 26
e 6 28
e 6 29
e 6 31
e 6 33
e 6 34
e 6 35
e 6 44
e 6 57
e 6 58
e 7 8
e 7 9
e 7 10
e 7 11
e 7 12
e 7 16
e 7 17
e 7 18
e 7 20
e 7 25
e 7 32
e 8 9
e 8 10
e 8 11
e 8 12
e 8 14
e 8 16
e 8 17
e 8 18
e 8 25
e 8 32
e 9 10
e 9 11
e 9 12
e 9 16
e 9 17
e 9 18
e 9 25
e 9 32
e 10 11
e 10 12
e 10 16
e 10 17
e 10 18
e 10 25
e 10 32
e 11 12
e 11 16
e 11 17
e 11 18
e 11 25
e 11 32
e 12 14
e 12 16
e 12 17
e 12 69
e 13 14
e 13 15
e 13 20
e 13 21
e 13 22
e 13 46
e 13 59
e 14 20
e 14 21
e 14 22
e 14 23
e 14 27
e 14 46
e 15 24
e 15 30
e 15 36
e 15 42
e 15 47
e 15 48
e 16 17
e 16 18
e 16 25
e 17 18
e 17 25
e 18 25
e 18 32
e 19 45
e 19 49
e 19 61
e 19 62
e 19 64
e 19 65
e 19 67
e 19 74
e 19 77
e 20 21
e 20 22
e 20 23
e 20 27
e 21 22
e 21 23
e 21 27
e 22 23
e 22 27
e 23 27
e 24 28
e 24 29
e 24 31
e 24 33
e 24 34
e 24 35
e 26 37
e 26 38
e 26 39
e 26 40
e 26 41
e 28 29
e 28 31
e 28 33
e 28 34
e 28 35
e 29 31
e 29 33
e 29 34
e 29 35
e 30 36
e 30 42
e 30 56
e 30 66
e 31 33
e 31 34
e 31 35
e 33 34
e 33 35
e 34 35
e 36 42
e 36 53
e 36 59
e 37 38
e 37 39
e 37 40
e 37 41
e 38 39
e 38 40
e 38 41
e 39 40
e 39 41
e 40 41
e 43 60
e 43 63
e 44 57
e 45 49
e 50 56
e 51 71
e 52 55
